41
75
60	2
59	4
58	3
57	1
54	4
53	2
52	1
51	2
49	1
48	1
47	1
46	2
45	2
44	4
43	2
42	2
41	1
40	1
39	4
38	1
36	1
35	5
34	1
33	1
32	4
31	7
30	2
29	1
28	6
26	3
25	2
24	3
23	2
22	2
21	2
20	4
19	4
18	2
17	4
16	1
15	2
